
--- Job Quantiles.gms Start 06/15/21 04:59:10 34.3.0 rac355f3 WEX-WEI x86 64bit/MS Windows
--- Applying:
    C:\GAMS\34\gmsprmNT.txt
    C:\Users\Erwin\Documents\GAMS\gamsconfig.yaml
--- GAMS Parameters defined
    Input D:\projects\blog\QuantileRegression\Quantiles.gms
    PageWidth 120
    PageSize 0
    PageContr 3
    Action CE
    ScrDir D:\projects\blog\QuantileRegression\225a\
    SysDir C:\GAMS\34\
    WorkDir D:\projects\blog\QuantileRegression\
    LogOption 3
    DFormat 0
    TFormat 0
    ErrorLog 99
    IDE 1
Licensee: Eval License                                   S201210/0001CO-GEN
          Amsterdam Optimization Modeling Group,                     DCE378
          C:\Users\Erwin\Documents\GAMS\gamslice.txt
          Evaluation license: Not for commercial or production use
GAMS 34.3.0   Copyright (C) 1987-2021 GAMS Development. All rights reserved
--- Starting compilation
--- Quantiles.gms(63) 3 Mb
--- Starting execution: elapsed 0:00:00.042
--- Quantiles.gms(58) 4 Mb
--- Generating LP model quantileLP
--- Quantiles.gms(60) 4 Mb
--- LOOPS t = 0
---   26 rows  52 columns  101 non-zeroes
--- Executing CPLEX (Solvelink=2): elapsed 0:00:00.150

IBM ILOG CPLEX   34.3.0 rac355f3 Released Feb 25, 2021 WEI x86 64bit/MS Window

--- GAMS/Cplex Link licensed for continuous and discrete problems.
--- GMO memory 0.50 Mb (peak 0.50 Mb)
--- Dictionary memory 0.00 Mb
--- Cplex 20.1.0.0 link memory 0.00 Mb (peak 0.01 Mb)
--- Starting Cplex

Version identifier: 20.1.0.0 | 2020-11-10 | 9bedb6d68
CPXPARAM_Advance                                 0
CPXPARAM_Threads                                 1
CPXPARAM_MIP_Display                             4
CPXPARAM_MIP_Tolerances_AbsMIPGap                0
Tried aggregator 1 time.
LP Presolve eliminated 25 rows and 52 columns.
All rows and columns eliminated.
Presolve time = 0.00 sec. (0.02 ticks)

--- LP status (1): optimal.
--- Cplex Time: 0.00sec (det. 0.03 ticks)


Optimal solution found
Objective:            0.000000

--- Reading solution for model quantileLP
--- Executing after solve: elapsed 0:00:00.582
--- Quantiles.gms(58) 4 Mb
--- Generating LP model quantileLP
--- Quantiles.gms(60) 4 Mb
--- LOOPS t = 0.25
---   26 rows  52 columns  126 non-zeroes
--- Executing CPLEX (Solvelink=2): elapsed 0:00:00.613

IBM ILOG CPLEX   34.3.0 rac355f3 Released Feb 25, 2021 WEI x86 64bit/MS Window

--- GAMS/Cplex Link licensed for continuous and discrete problems.
--- GMO memory 0.50 Mb (peak 0.50 Mb)
--- Dictionary memory 0.00 Mb
--- Cplex 20.1.0.0 link memory 0.00 Mb (peak 0.01 Mb)
--- Starting Cplex

Version identifier: 20.1.0.0 | 2020-11-10 | 9bedb6d68
CPXPARAM_Advance                                 2
CPXPARAM_Threads                                 1
CPXPARAM_MIP_Display                             4
CPXPARAM_MIP_Tolerances_AbsMIPGap                0
Tried aggregator 1 time.
LP Presolve eliminated 0 rows and 1 columns.
Reduced LP has 25 rows, 51 columns, and 75 nonzeros.
Presolve time = 0.02 sec. (0.03 ticks)
Using devex.

Iteration log . . .
Iteration:     1    Objective     =           187.640957

--- LP status (1): optimal.
--- Cplex Time: 0.02sec (det. 0.08 ticks)


Optimal solution found
Objective:          177.432389

--- Reading solution for model quantileLP
--- Executing after solve: elapsed 0:00:00.858
--- Quantiles.gms(58) 4 Mb
--- Generating LP model quantileLP
--- Quantiles.gms(60) 4 Mb
--- LOOPS t = 0.5
---   26 rows  52 columns  126 non-zeroes
--- Executing CPLEX (Solvelink=2): elapsed 0:00:00.888

IBM ILOG CPLEX   34.3.0 rac355f3 Released Feb 25, 2021 WEI x86 64bit/MS Window

--- GAMS/Cplex Link licensed for continuous and discrete problems.
--- GMO memory 0.50 Mb (peak 0.50 Mb)
--- Dictionary memory 0.00 Mb
--- Cplex 20.1.0.0 link memory 0.00 Mb (peak 0.01 Mb)
--- Starting Cplex

Version identifier: 20.1.0.0 | 2020-11-10 | 9bedb6d68
CPXPARAM_Advance                                 2
CPXPARAM_Threads                                 1
CPXPARAM_MIP_Display                             4
CPXPARAM_MIP_Tolerances_AbsMIPGap                0
Tried aggregator 1 time.
LP Presolve eliminated 0 rows and 1 columns.
Reduced LP has 25 rows, 51 columns, and 75 nonzeros.
Presolve time = 0.01 sec. (0.03 ticks)
Using devex.

Iteration log . . .
Iteration:     1    Objective     =           293.952347

--- LP status (1): optimal.
--- Cplex Time: 0.01sec (det. 0.08 ticks)


Optimal solution found
Objective:          262.532480

--- Reading solution for model quantileLP
--- Executing after solve: elapsed 0:00:01.097
--- Quantiles.gms(58) 4 Mb
--- Generating LP model quantileLP
--- Quantiles.gms(60) 4 Mb
--- LOOPS t = 0.75
---   26 rows  52 columns  126 non-zeroes
--- Executing CPLEX (Solvelink=2): elapsed 0:00:01.140

IBM ILOG CPLEX   34.3.0 rac355f3 Released Feb 25, 2021 WEI x86 64bit/MS Window

--- GAMS/Cplex Link licensed for continuous and discrete problems.
--- GMO memory 0.50 Mb (peak 0.50 Mb)
--- Dictionary memory 0.00 Mb
--- Cplex 20.1.0.0 link memory 0.00 Mb (peak 0.01 Mb)
--- Starting Cplex

Version identifier: 20.1.0.0 | 2020-11-10 | 9bedb6d68
CPXPARAM_Advance                                 2
CPXPARAM_Threads                                 1
CPXPARAM_MIP_Display                             4
CPXPARAM_MIP_Tolerances_AbsMIPGap                0
Tried aggregator 1 time.
LP Presolve eliminated 0 rows and 1 columns.
Reduced LP has 25 rows, 51 columns, and 75 nonzeros.
Presolve time = 0.02 sec. (0.03 ticks)
Using devex.

Iteration log . . .
Iteration:     1    Objective     =           276.482432

--- LP status (1): optimal.
--- Cplex Time: 0.02sec (det. 0.08 ticks)


Optimal solution found
Objective:          219.757293

--- Reading solution for model quantileLP
--- Executing after solve: elapsed 0:00:01.309
--- Quantiles.gms(58) 4 Mb
--- Generating LP model quantileLP
--- Quantiles.gms(60) 4 Mb
--- LOOPS t = 1
---   26 rows  52 columns  101 non-zeroes
--- Executing CPLEX (Solvelink=2): elapsed 0:00:01.329

IBM ILOG CPLEX   34.3.0 rac355f3 Released Feb 25, 2021 WEI x86 64bit/MS Window

--- GAMS/Cplex Link licensed for continuous and discrete problems.
--- GMO memory 0.50 Mb (peak 0.50 Mb)
--- Dictionary memory 0.00 Mb
--- Cplex 20.1.0.0 link memory 0.00 Mb (peak 0.01 Mb)
--- Starting Cplex

Version identifier: 20.1.0.0 | 2020-11-10 | 9bedb6d68
CPXPARAM_Advance                                 2
CPXPARAM_Threads                                 1
CPXPARAM_MIP_Display                             4
CPXPARAM_MIP_Tolerances_AbsMIPGap                0
Tried aggregator 1 time.
LP Presolve eliminated 25 rows and 52 columns.
All rows and columns eliminated.
Presolve time = 0.00 sec. (0.02 ticks)

--- LP status (1): optimal.
--- Cplex Time: 0.02sec (det. 0.03 ticks)


Optimal solution found
Objective:            0.000000

--- Reading solution for model quantileLP
--- Executing after solve: elapsed 0:00:01.552
--- Quantiles.gms(63) 4 Mb
*** Status: Normal completion
--- Job Quantiles.gms Stop 06/15/21 04:59:12 elapsed 0:00:01.558
